60
1 0 4
2 0 4
2 1 1
3 0 5
3 1 2
3 2 8
4 0 4
4 1 6
4 2 2
4 3 2
5 0 3
5 1 2
5 2 7
5 3 4
5 4 4
6 0 1
6 1 2
6 2 4
6 3 9
6 4 7
6 5 5
7 0 2
7 1 2
7 2 4
7 3 2
7 4 9
7 5 8
7 6 8
8 0 7
8 1 6
8 2 3
8 3 3
8 4 8
8 5 6
8 6 3
8 7 1
9 0 9
9 1 3
9 2 2
9 3 5
9 4 3
9 5 1
9 6 3
9 7 4
9 8 4
10 0 5
10 1 5
10 2 4
10 3 7
10 4 9
10 5 8
10 6 7
10 7 3
10 8 2
10 9 8
11 0 1
11 1 6
11 2 1
11 3 4
11 4 2
11 5 2
11 6 2
11 7 9
11 8 8
11 9 5
11 10 4
12 0 6
12 1 4
12 2 5
12 3 1
12 4 6
12 5 2
12 6 4
12 7 2
12 8 3
12 9 7
12 10 8
12 11 3
13 0 5
13 1 3
13 2 6
13 3 6
13 4 2
13 5 2
13 6 8
13 7 2
13 8 2
13 9 8
13 10 4
13 11 7
13 12 4
14 0 3
14 1 7
14 2 3
14 3 5
14 4 5
14 5 5
14 6 6
14 7 5
14 8 4
14 9 1
14 10 4
14 11 5
14 12 3
14 13 5
15 0 4
15 1 1
15 2 9
15 3 1
15 4 3
15 5 5
15 6 1
15 7 5
15 8 4
15 9 2
15 10 7
15 11 7
15 12 4
15 13 2
15 14 7
16 0 9
16 1 3
16 2 8
16 3 1
16 4 1
16 5 6
16 6 1
16 7 6
16 8 2
16 9 2
16 10 5
16 11 2
16 12 8
16 13 5
16 14 6
16 15 7
17 0 2
17 1 9
17 2 8
17 3 3
17 4 2
17 5 5
17 6 3
17 7 5
17 8 2
17 9 8
17 10 8
17 11 3
17 12 1
17 13 2
17 14 6
17 15 9
17 16 2
18 0 4
18 1 7
18 2 5
18 3 9
18 4 6
18 5 6
18 6 2
18 7 7
18 8 2
18 9 9
18 10 3
18 11 5
18 12 1
18 13 1
18 14 9
18 15 8
18 16 3
18 17 8
19 0 7
19 1 6
19 2 8
19 3 8
19 4 2
19 5 3
19 6 4
19 7 3
19 8 1
19 9 5
19 10 1
19 11 6
19 12 1
19 13 4
19 14 9
19 15 2
19 16 7
19 17 9
19 18 4
20 0 1
20 1 8
20 2 3
20 3 5
20 4 8
20 5 5
20 6 9
20 7 6
20 8 7
20 9 7
20 10 3
20 11 4
20 12 1
20 13 8
20 14 9
20 15 8
20 16 1
20 17 1
20 18 1
20 19 4
21 0 3
21 1 1
21 2 7
21 3 2
21 4 4
21 5 5
21 6 6
21 7 7
21 8 6
21 9 2
21 10 3
21 11 4
21 12 9
21 13 2
21 14 8
21 15 5
21 16 2
21 17 7
21 18 1
21 19 7
21 20 8
22 0 5
22 1 7
22 2 2
22 3 5
22 4 4
22 5 6
22 6 3
22 7 4
22 8 6
22 9 6
22 10 8
22 11 4
22 12 8
22 13 9
22 14 2
22 15 6
22 16 2
22 17 3
22 18 8
22 19 6
22 20 1
22 21 7
23 0 7
23 1 2
23 2 9
23 3 7
23 4 1
23 5 1
23 6 9
23 7 9
23 8 4
23 9 5
23 10 6
23 11 2
23 12 8
23 13 7
23 14 1
23 15 4
23 16 2
23 17 5
23 18 1
23 19 1
23 20 5
23 21 2
23 22 9
24 0 8
24 1 6
24 2 7
24 3 1
24 4 4
24 5 6
24 6 8
24 7 1
24 8 4
24 9 2
24 10 8
24 11 9
24 12 5
24 13 4
24 14 7
24 15 1
24 16 2
24 17 4
24 18 7
24 19 4
24 20 8
24 21 2
24 22 4
24 23 9
25 0 2
25 1 8
25 2 9
25 3 2
25 4 7
25 5 1
25 6 1
25 7 9
25 8 2
25 9 6
25 10 8
25 11 2
25 12 3
25 13 3
25 14 1
25 15 8
25 16 6
25 17 7
25 18 4
25 19 4
25 20 4
25 21 6
25 22 7
25 23 3
25 24 1
26 0 6
26 1 6
26 2 4
26 3 7
26 4 6
26 5 7
26 6 5
26 7 7
26 8 3
26 9 5
26 10 9
26 11 2
26 12 7
26 13 8
26 14 7
26 15 3
26 16 7
26 17 8
26 18 7
26 19 3
26 20 4
26 21 4
26 22 9
26 23 8
26 24 1
26 25 1
27 0 1
27 1 2
27 2 1
27 3 5
27 4 7
27 5 4
27 6 1
27 7 5
27 8 4
27 9 1
27 10 1
27 11 8
27 12 7
27 13 9
27 14 8
27 15 6
27 16 2
27 17 6
27 18 7
27 19 5
27 20 5
27 21 8
27 22 5
27 23 2
27 24 5
27 25 5
27 26 8
28 0 8
28 1 2
28 2 9
28 3 8
28 4 7
28 5 4
28 6 5
28 7 5
28 8 7
28 9 4
28 10 2
28 11 9
28 12 3
28 13 7
28 14 9
28 15 9
28 16 6
28 17 4
28 18 9
28 19 9
28 20 1
28 21 1
28 22 7
28 23 9
28 24 7
28 25 8
28 26 5
28 27 9
29 0 7
29 1 6
29 2 9
29 3 1
29 4 5
29 5 5
29 6 8
29 7 2
29 8 1
29 9 5
29 10 8
29 11 4
29 12 4
29 13 5
29 14 1
29 15 2
29 16 2
29 17 2
29 18 2
29 19 3
29 20 8
29 21 3
29 22 7
29 23 2
29 24 3
29 25 4
29 26 1
29 27 6
29 28 8
30 0 2
30 1 5
30 2 6
30 3 7
30 4 8
30 5 4
30 6 9
30 7 8
30 8 6
30 9 7
30 10 6
30 11 8
30 12 8
30 13 8
30 14 7
30 15 1
30 16 4
30 17 4
30 18 9
30 19 4
30 20 6
30 21 9
30 22 7
30 23 6
30 24 8
30 25 4
30 26 8
30 27 1
30 28 2
30 29 2
31 0 2
31 1 1
31 2 7
31 3 4
31 4 7
31 5 1
31 6 2
31 7 2
31 8 5
31 9 2
31 10 5
31 11 1
31 12 9
31 13 3
31 14 7
31 15 7
31 16 5
31 17 9
31 18 9
31 19 4
31 20 5
31 21 6
31 22 4
31 23 3
31 24 8
31 25 4
31 26 4
31 27 2
31 28 9
31 29 6
31 30 3
32 0 7
32 1 7
32 2 4
32 3 7
32 4 7
32 5 4
32 6 9
32 7 2
32 8 8
32 9 6
32 10 8
32 11 4
32 12 4
32 13 9
32 14 6
32 15 8
32 16 7
32 17 6
32 18 9
32 19 5
32 20 2
32 21 8
32 22 1
32 23 4
32 24 9
32 25 4
32 26 2
32 27 7
32 28 1
32 29 6
32 30 8
32 31 6
33 0 5
33 1 6
33 2 4
33 3 5
33 4 5
33 5 6
33 6 2
33 7 9
33 8 3
33 9 4
33 10 5
33 11 9
33 12 5
33 13 5
33 14 9
33 15 3
33 16 9
33 17 3
33 18 2
33 19 2
33 20 3
33 21 2
33 22 7
33 23 5
33 24 8
33 25 3
33 26 2
33 27 2
33 28 2
33 29 1
33 30 6
33 31 9
33 32 1
34 0 4
34 1 3
34 2 7
34 3 3
34 4 7
34 5 7
34 6 5
34 7 3
34 8 1
34 9 6
34 10 3
34 11 5
34 12 7
34 13 6
34 14 9
34 15 1
34 16 2
34 17 7
34 18 1
34 19 3
34 20 7
34 21 2
34 22 1
34 23 7
34 24 8
34 25 1
34 26 7
34 27 1
34 28 7
34 29 6
34 30 4
34 31 9
34 32 1
34 33 6
35 0 6
35 1 2
35 2 2
35 3 5
35 4 8
35 5 7
35 6 4
35 7 9
35 8 6
35 9 3
35 10 9
35 11 3
35 12 3
35 13 9
35 14 1
35 15 1
35 16 1
35 17 6
35 18 4
35 19 4
35 20 1
35 21 1
35 22 8
35 23 9
35 24 1
35 25 4
35 26 4
35 27 1
35 28 1
35 29 2
35 30 2
35 31 6
35 32 8
35 33 2
35 34 1
36 0 9
36 1 1
36 2 5
36 3 1
36 4 2
36 5 5
36 6 2
36 7 2
36 8 2
36 9 7
36 10 3
36 11 6
36 12 2
36 13 6
36 14 1
36 15 5
36 16 2
36 17 2
36 18 6
36 19 9
36 20 3
36 21 2
36 22 5
36 23 8
36 24 1
36 25 1
36 26 9
36 27 9
36 28 2
36 29 9
36 30 2
36 31 1
36 32 8
36 33 7
36 34 9
36 35 1
37 0 7
37 1 3
37 2 7
37 3 8
37 4 2
37 5 1
37 6 9
37 7 5
37 8 3
37 9 2
37 10 3
37 11 9
37 12 7
37 13 7
37 14 8
37 15 5
37 16 8
37 17 7
37 18 5
37 19 9
37 20 5
37 21 8
37 22 1
37 23 8
37 24 4
37 25 4
37 26 3
37 27 5
37 28 7
37 29 6
37 30 7
37 31 5
37 32 5
37 33 8
37 34 2
37 35 6
37 36 8
38 0 7
38 1 4
38 2 1
38 3 8
38 4 8
38 5 9
38 6 8
38 7 7
38 8 4
38 9 7
38 10 8
38 11 6
38 12 2
38 13 4
38 14 1
38 15 7
38 16 6
38 17 1
38 18 8
38 19 1
38 20 7
38 21 8
38 22 9
38 23 9
38 24 2
38 25 2
38 26 6
38 27 3
38 28 9
38 29 4
38 30 5
38 31 8
38 32 2
38 33 5
38 34 8
38 35 9
38 36 5
38 37 8
39 0 9
39 1 6
39 2 7
39 3 6
39 4 6
39 5 3
39 6 1
39 7 2
39 8 2
39 9 9
39 10 9
39 11 5
39 12 4
39 13 6
39 14 7
39 15 7
39 16 7
39 17 7
39 18 7
39 19 5
39 20 1
39 21 6
39 22 5
39 23 2
39 24 5
39 25 8
39 26 2
39 27 7
39 28 6
39 29 9
39 30 7
39 31 8
39 32 4
39 33 3
39 34 1
39 35 7
39 36 6
39 37 4
39 38 8
40 0 9
40 1 1
40 2 3
40 3 2
40 4 6
40 5 5
40 6 5
40 7 6
40 8 3
40 9 5
40 10 4
40 11 4
40 12 6
40 13 4
40 14 3
40 15 5
40 16 2
40 17 9
40 18 7
40 19 9
40 20 7
40 21 9
40 22 2
40 23 9
40 24 6
40 25 5
40 26 9
40 27 7
40 28 7
40 29 4
40 30 2
40 31 4
40 32 3
40 33 1
40 34 1
40 35 9
40 36 1
40 37 3
40 38 3
40 39 1
41 0 7
41 1 6
41 2 6
41 3 4
41 4 8
41 5 3
41 6 9
41 7 5
41 8 5
41 9 5
41 10 2
41 11 1
41 12 7
41 13 5
41 14 6
41 15 1
41 16 1
41 17 3
41 18 6
41 19 1
41 20 2
41 21 7
41 22 1
41 23 8
41 24 1
41 25 8
41 26 7
41 27 6
41 28 8
41 29 7
41 30 5
41 31 6
41 32 2
41 33 7
41 34 4
41 35 3
41 36 4
41 37 6
41 38 1
41 39 9
41 40 1
42 0 7
42 1 9
42 2 6
42 3 4
42 4 9
42 5 6
42 6 9
42 7 1
42 8 3
42 9 8
42 10 1
42 11 9
42 12 5
42 13 6
42 14 1
42 15 1
42 16 1
42 17 2
42 18 8
42 19 3
42 20 8
42 21 2
42 22 6
42 23 6
42 24 2
42 25 4
42 26 8
42 27 2
42 28 5
42 29 3
42 30 9
42 31 1
42 32 6
42 33 1
42 34 3
42 35 5
42 36 8
42 37 3
42 38 2
42 39 2
42 40 8
42 41 2
43 0 6
43 1 1
43 2 5
43 3 8
43 4 7
43 5 7
43 6 8
43 7 1
43 8 2
43 9 4
43 10 3
43 11 1
43 12 4
43 13 6
43 14 4
43 15 9
43 16 5
43 17 5
43 18 9
43 19 4
43 20 4
43 21 5
43 22 4
43 23 8
43 24 8
43 25 6
43 26 7
43 27 6
43 28 6
43 29 3
43 30 3
43 31 2
43 32 1
43 33 8
43 34 4
43 35 9
43 36 1
43 37 5
43 38 8
43 39 4
43 40 2
43 41 1
43 42 1
44 0 3
44 1 4
44 2 7
44 3 6
44 4 4
44 5 4
44 6 5
44 7 2
44 8 4
44 9 8
44 10 7
44 11 9
44 12 3
44 13 7
44 14 6
44 15 5
44 16 6
44 17 2
44 18 2
44 19 9
44 20 8
44 21 5
44 22 2
44 23 4
44 24 5
44 25 7
44 26 9
44 27 1
44 28 4
44 29 2
44 30 2
44 31 3
44 32 9
44 33 6
44 34 4
44 35 4
44 36 9
44 37 4
44 38 9
44 39 6
44 40 9
44 41 6
44 42 7
44 43 8
45 0 2
45 1 8
45 2 3
45 3 4
45 4 3
45 5 6
45 6 3
45 7 6
45 8 2
45 9 9
45 10 7
45 11 9
45 12 2
45 13 3
45 14 1
45 15 7
45 16 3
45 17 2
45 18 6
45 19 8
45 20 2
45 21 4
45 22 6
45 23 6
45 24 3
45 25 6
45 26 9
45 27 3
45 28 4
45 29 7
45 30 9
45 31 6
45 32 7
45 33 9
45 34 4
45 35 1
45 36 3
45 37 7
45 38 4
45 39 4
45 40 9
45 41 8
45 42 9
45 43 2
45 44 1
46 0 9
46 1 8
46 2 8
46 3 2
46 4 9
46 5 5
46 6 8
46 7 3
46 8 7
46 9 3
46 10 7
46 11 9
46 12 2
46 13 5
46 14 9
46 15 6
46 16 9
46 17 7
46 18 8
46 19 8
46 20 9
46 21 8
46 22 9
46 23 4
46 24 5
46 25 1
46 26 9
46 27 6
46 28 3
46 29 2
46 30 8
46 31 2
46 32 2
46 33 4
46 34 3
46 35 9
46 36 5
46 37 5
46 38 4
46 39 8
46 40 4
46 41 9
46 42 7
46 43 6
46 44 5
46 45 3
47 0 1
47 1 8
47 2 3
47 3 2
47 4 2
47 5 1
47 6 5
47 7 5
47 8 3
47 9 4
47 10 3
47 11 5
47 12 7
47 13 4
47 14 4
47 15 4
47 16 6
47 17 1
47 18 3
47 19 2
47 20 7
47 21 7
47 22 9
47 23 8
47 24 6
47 25 7
47 26 2
47 27 9
47 28 5
47 29 3
47 30 6
47 31 2
47 32 9
47 33 2
47 34 2
47 35 5
47 36 7
47 37 6
47 38 8
47 39 9
47 40 3
47 41 5
47 42 2
47 43 2
47 44 1
47 45 6
47 46 2
48 0 2
48 1 2
48 2 4
48 3 3
48 4 9
48 5 9
48 6 5
48 7 6
48 8 4
48 9 5
48 10 8
48 11 2
48 12 5
48 13 9
48 14 7
48 15 9
48 16 7
48 17 3
48 18 2
48 19 3
48 20 1
48 21 2
48 22 9
48 23 5
48 24 3
48 25 5
48 26 2
48 27 7
48 28 5
48 29 3
48 30 7
48 31 2
48 32 3
48 33 5
48 34 9
48 35 4
48 36 1
48 37 3
48 38 7
48 39 7
48 40 1
48 41 3
48 42 4
48 43 3
48 44 3
48 45 8
48 46 8
48 47 1
49 0 4
49 1 8
49 2 6
49 3 6
49 4 1
49 5 8
49 6 4
49 7 7
49 8 3
49 9 5
49 10 7
49 11 5
49 12 4
49 13 1
49 14 3
49 15 8
49 16 6
49 17 9
49 18 7
49 19 6
49 20 4
49 21 8
49 22 4
49 23 5
49 24 6
49 25 6
49 26 8
49 27 4
49 28 9
49 29 6
49 30 7
49 31 3
49 32 7
49 33 8
49 34 2
49 35 4
49 36 6
49 37 6
49 38 7
49 39 3
49 40 4
49 41 6
49 42 9
49 43 8
49 44 9
49 45 3
49 46 7
49 47 7
49 48 2
50 0 1
50 1 2
50 2 6
50 3 2
50 4 8
50 5 9
50 6 7
50 7 2
50 8 9
50 9 5
50 10 5
50 11 6
50 12 9
50 13 6
50 14 1
50 15 9
50 16 1
50 17 9
50 18 4
50 19 9
50 20 6
50 21 3
50 22 9
50 23 5
50 24 5
50 25 9
50 26 6
50 27 1
50 28 5
50 29 7
50 30 6
50 31 6
50 32 5
50 33 2
50 34 2
50 35 2
50 36 3
50 37 7
50 38 6
50 39 2
50 40 1
50 41 4
50 42 6
50 43 3
50 44 9
50 45 4
50 46 9
50 47 2
50 48 2
50 49 4
51 0 4
51 1 1
51 2 2
51 3 8
51 4 6
51 5 4
51 6 9
51 7 5
51 8 8
51 9 4
51 10 7
51 11 9
51 12 3
51 13 1
51 14 4
51 15 6
51 16 1
51 17 6
51 18 6
51 19 1
51 20 9
51 21 7
51 22 7
51 23 3
51 24 5
51 25 6
51 26 8
51 27 3
51 28 3
51 29 4
51 30 6
51 31 4
51 32 6
51 33 9
51 34 8
51 35 1
51 36 3
51 37 4
51 38 4
51 39 8
51 40 8
51 41 5
51 42 1
51 43 9
51 44 5
51 45 5
51 46 9
51 47 2
51 48 6
51 49 9
51 50 4
52 0 3
52 1 2
52 2 2
52 3 8
52 4 1
52 5 3
52 6 7
52 7 6
52 8 5
52 9 7
52 10 6
52 11 1
52 12 6
52 13 3
52 14 6
52 15 4
52 16 5
52 17 5
52 18 1
52 19 4
52 20 4
52 21 8
52 22 9
52 23 5
52 24 3
52 25 3
52 26 7
52 27 7
52 28 4
52 29 9
52 30 3
52 31 1
52 32 3
52 33 9
52 34 3
52 35 4
52 36 9
52 37 8
52 38 8
52 39 1
52 40 1
52 41 6
52 42 2
52 43 9
52 44 9
52 45 4
52 46 8
52 47 4
52 48 7
52 49 9
52 50 9
52 51 1
53 0 5
53 1 6
53 2 8
53 3 9
53 4 9
53 5 7
53 6 7
53 7 1
53 8 3
53 9 5
53 10 1
53 11 4
53 12 7
53 13 8
53 14 3
53 15 7
53 16 4
53 17 8
53 18 3
53 19 6
53 20 2
53 21 3
53 22 6
53 23 7
53 24 7
53 25 6
53 26 3
53 27 4
53 28 8
53 29 4
53 30 1
53 31 4
53 32 8
53 33 2
53 34 3
53 35 1
53 36 3
53 37 7
53 38 6
53 39 4
53 40 2
53 41 8
53 42 9
53 43 2
53 44 5
53 45 8
53 46 9
53 47 5
53 48 5
53 49 1
53 50 4
53 51 8
53 52 2
54 0 3
54 1 6
54 2 7
54 3 9
54 4 2
54 5 7
54 6 3
54 7 9
54 8 3
54 9 6
54 10 4
54 11 2
54 12 4
54 13 3
54 14 5
54 15 1
54 16 4
54 17 9
54 18 2
54 19 7
54 20 8
54 21 2
54 22 3
54 23 9
54 24 1
54 25 9
54 26 3
54 27 8
54 28 4
54 29 2
54 30 9
54 31 8
54 32 9
54 33 7
54 34 5
54 35 6
54 36 5
54 37 5
54 38 7
54 39 9
54 40 9
54 41 1
54 42 7
54 43 9
54 44 5
54 45 1
54 46 9
54 47 9
54 48 9
54 49 7
54 50 1
54 51 5
54 52 2
54 53 4
55 0 4
55 1 3
55 2 4
55 3 9
55 4 2
55 5 1
55 6 3
55 7 9
55 8 6
55 9 5
55 10 4
55 11 1
55 12 9
55 13 7
55 14 9
55 15 1
55 16 1
55 17 3
55 18 2
55 19 7
55 20 6
55 21 3
55 22 2
55 23 4
55 24 5
55 25 2
55 26 5
55 27 9
55 28 2
55 29 8
55 30 1
55 31 4
55 32 8
55 33 6
55 34 5
55 35 6
55 36 5
55 37 7
55 38 3
55 39 9
55 40 7
55 41 2
55 42 1
55 43 3
55 44 5
55 45 3
55 46 5
55 47 8
55 48 3
55 49 6
55 50 5
55 51 8
55 52 6
55 53 2
55 54 4
56 0 5
56 1 4
56 2 6
56 3 1
56 4 1
56 5 2
56 6 9
56 7 5
56 8 6
56 9 4
56 10 8
56 11 8
56 12 8
56 13 6
56 14 5
56 15 1
56 16 8
56 17 8
56 18 6
56 19 9
56 20 7
56 21 2
56 22 6
56 23 3
56 24 5
56 25 8
56 26 2
56 27 6
56 28 9
56 29 5
56 30 5
56 31 4
56 32 2
56 33 8
56 34 6
56 35 1
56 36 7
56 37 7
56 38 4
56 39 6
56 40 6
56 41 3
56 42 3
56 43 9
56 44 3
56 45 8
56 46 4
56 47 6
56 48 8
56 49 9
56 50 9
56 51 9
56 52 5
56 53 7
56 54 8
56 55 9
57 0 3
57 1 8
57 2 7
57 3 3
57 4 4
57 5 2
57 6 2
57 7 8
57 8 2
57 9 3
57 10 4
57 11 4
57 12 8
57 13 7
57 14 7
57 15 7
57 16 3
57 17 5
57 18 7
57 19 4
57 20 6
57 21 4
57 22 9
57 23 3
57 24 9
57 25 1
57 26 1
57 27 3
57 28 7
57 29 2
57 30 3
57 31 2
57 32 8
57 33 4
57 34 2
57 35 2
57 36 4
57 37 1
57 38 6
57 39 6
57 40 2
57 41 8
57 42 3
57 43 2
57 44 5
57 45 8
57 46 3
57 47 5
57 48 8
57 49 2
57 50 8
57 51 3
57 52 8
57 53 6
57 54 2
57 55 2
57 56 7
58 0 9
58 1 5
58 2 7
58 3 8
58 4 2
58 5 3
58 6 4
58 7 6
58 8 6
58 9 1
58 10 1
58 11 4
58 12 5
58 13 7
58 14 6
58 15 9
58 16 7
58 17 8
58 18 7
58 19 4
58 20 5
58 21 7
58 22 8
58 23 2
58 24 4
58 25 7
58 26 2
58 27 4
58 28 1
58 29 1
58 30 3
58 31 8
58 32 9
58 33 9
58 34 7
58 35 3
58 36 2
58 37 1
58 38 2
58 39 1
58 40 6
58 41 3
58 42 7
58 43 9
58 44 4
58 45 6
58 46 5
58 47 6
58 48 3
58 49 6
58 50 7
58 51 6
58 52 6
58 53 9
58 54 6
58 55 8
58 56 5
58 57 9
59 0 3
59 1 1
59 2 7
59 3 4
59 4 1
59 5 1
59 6 9
59 7 2
59 8 1
59 9 2
59 10 5
59 11 9
59 12 2
59 13 4
59 14 8
59 15 9
59 16 9
59 17 9
59 18 6
59 19 7
59 20 1
59 21 1
59 22 3
59 23 8
59 24 4
59 25 3
59 26 4
59 27 1
59 28 4
59 29 2
59 30 2
59 31 6
59 32 6
59 33 6
59 34 8
59 35 1
59 36 6
59 37 5
59 38 9
59 39 3
59 40 2
59 41 2
59 42 6
59 43 6
59 44 6
59 45 5
59 46 4
59 47 8
59 48 3
59 49 9
59 50 3
59 51 1
59 52 9
59 53 2
59 54 9
59 55 6
59 56 7
59 57 4
59 58 3
